benchmarks_vrp/CMT4/no_cluster/CMT4_6.vrp
NAME: CMT4_6
TYPE: CVRP
COMMENT: 1028.42 - Cluster Nr.6
DIMENSION: 14
CAPACITY: 200
EDGE_WEIGHT_TYPE: EUC_2D
NODE_COORD_TYPE: TWOD_COORDS
NODE_COORD_SECTION: 
13 35 35
14 52 41
6 41 37
5 49 42
12 45 30
4 52 33
7 50 35
2 56 37
10 45 35
1 56 37
8 42 41
9 48 28
3 40 25
11 40 30
DEPOT_SECTION: 
13
-1
DEMAND_SECTION: 
9 18
11 21
6 16
13 0
8 19
4 11
2 6
1 10
12 17
5 13
7 19
14 15
3 9
10 15
EOF
