benchmarks_vrp/CMT4/no_cluster/CMT4_6.tour
NAME: CMT4_6 solution
TYPE: TOUR
TOUR_SECTION:
13 6 8 5 14 2 1 4 7 10 12 9 3 11 -1
-1
EOF